(set-info :smt-lib-version 2.6)
(set-logic QF_S)
(set-info :source |
Generated by: Shaoke Cui
Generated on: 2025-04-10
Application: Using String Solvers to solve string matching problems
Target solver: Z3, Z3alpha, Z3-noodler
Benchmarks for string matching problem with wildcards, which needs to determine whether two strings containing two wildcards can match.
Use re.allchar and (re.* re.allchar) to represent wildcards.
Determine whether the two strings match by judging whether the result of re.inter is re.none.
|)
(set-info :license "https://creativecommons.org/licenses/by/4.0/")
(set-info :category "crafted")
(set-info :status unknown)
(assert (= re.none (re.inter  (re.++ (str.to_re "dv") re.allchar (str.to_re "jpgqjmpbxuue") re.allchar (str.to_re "qsnuj") re.allchar (re.* re.allchar) (str.to_re "v") re.allchar (str.to_re "ek") (re.* re.allchar) (str.to_re "dxdfktg") (re.* re.allchar) (str.to_re "oxlr") re.allchar (str.to_re "kdbe") re.allchar (str.to_re "yikrunqtoyuqxng") (re.* re.allchar) (re.* re.allchar) (str.to_re "gdgfybfi") re.allchar (str.to_re "hsezb") re.allchar (str.to_re "yfpnqgvri") re.allchar (str.to_re "vk") re.allchar (str.to_re "i") (re.* re.allchar) (str.to_re "pcqadtwgomictj") (re.* re.allchar) (str.to_re "momguluhprq") (re.* re.allchar) (str.to_re "vnpctndjxfelzlzrsj") re.allchar (str.to_re "rutn") (re.* re.allchar) (str.to_re "btqmwppyu") (re.* re.allchar) (str.to_re "rljnqvqchsltyjwgptaxvnftqamlv") (re.* re.allchar) (str.to_re "vymqhwgiwerhjutkpgpmybkjpdunvphtdjkqxixugkmq") re.allchar (str.to_re "ilytwxzryrkdxa") re.allchar (str.to_re "ngxkhawqnxwzcovnneyo") re.allchar (str.to_re "t") (re.* re.allchar) (str.to_re "ahyygidmqlqznzzereixcahdbwylla") (re.* re.allchar) (str.to_re "s") re.allchar (str.to_re "i") (re.* re.allchar) (str.to_re "cpjmuoyzhbydenxpm") (re.* re.allchar) re.allchar (str.to_re "mfmeahkecgrknbqqiildg") re.allchar (str.to_re "i") re.allchar (str.to_re "ehqiz") (re.* re.allchar) re.allchar re.allchar (str.to_re "mv") re.allchar (str.to_re "epyqvuxzaz") (re.* re.allchar) (str.to_re "tiftlsb") re.allchar (str.to_re "rnxkloa") re.allchar (str.to_re "ysiyv") re.allchar (str.to_re "xewjomfndbjbxthsltdsvzdckhisvivo") re.allchar (str.to_re "mwgmeuuonkjwfnl") re.allchar (str.to_re "pkykxfbysgcbqskfqbnf") re.allchar (str.to_re "mdbkguutflltn") re.allchar (str.to_re "ntyriqpppyrd") (re.* re.allchar) (str.to_re "xkqmsxpxwslqolxbsw") (re.* re.allchar) (str.to_re "ugliwqgvjwjurikhngxtzxsnlaaf") (re.* re.allchar) (str.to_re "frrq") re.allchar (str.to_re "p") (re.* re.allchar) (str.to_re "bazbjyhuzrwexqk") re.allchar (re.* re.allchar) (str.to_re "ylavdgvjw") re.allchar (str.to_re "lfgfzduerxkc") re.allchar (str.to_re "izsqkxmuwljznnkphwf") re.allchar (str.to_re "ylnbxvhxbcfynzvznqrja") re.allchar (str.to_re "kkolfjx") re.allchar (str.to_re "iihc") re.allchar (str.to_re "xyxnwekpckcsvmhhhqcsmsc") (re.* re.allchar) (str.to_re "lwsbgejcfntxhgwpbrzpb") (re.* re.allchar) (str.to_re "uhu") (re.* re.allchar) (str.to_re "uirhcqpmajuqmweodyalkcefplvpmcoknrbahcbne") re.allchar (str.to_re "yy") re.allchar (str.to_re "ocuqvbmsjeskg") re.allchar re.allchar (str.to_re "xqowyfsbfqsujclprdnbo") re.allchar (re.* re.allchar) (str.to_re "dmbv") re.allchar (str.to_re "aziqolbein") re.allchar (str.to_re "otox") re.allchar (re.* re.allchar) (str.to_re "pxkr") (re.* re.allchar) (str.to_re "xjqqe") re.allchar (str.to_re "vebzeksfdtee") re.allchar (str.to_re "vqefhiblockgrxrxr") re.allchar (str.to_re "lvy") (re.* re.allchar) (re.* re.allchar) (str.to_re "lgf") re.allchar (str.to_re "svp") re.allchar re.allchar (str.to_re "lvnaiomrmiockifivdklykmagzofo") (re.* re.allchar) (str.to_re "mlegxncpmgcohaj") (re.* re.allchar) (str.to_re "diord") re.allchar (str.to_re "ztmqwcvqgm") re.allchar (str.to_re "hvo") re.allchar (str.to_re "ebtwuekxj") (re.* re.allchar) (str.to_re "hwrc") re.allchar (str.to_re "cp") (re.* re.allchar) (str.to_re "n") (re.* re.allchar) (str.to_re "aqwylvewryk") (re.* re.allchar) (str.to_re "ocniyoui") re.allchar (str.to_re "rzpopelpoujwyzzrnsxqesgizrennc") (re.* re.allchar) (str.to_re "zivtifsybaxlnfmamipl") re.allchar (str.to_re "iwtbjhifcznscmjcubzzeiwegvadordjkfkjrswnmbi") (re.* re.allchar) (str.to_re "hhlsy") (re.* re.allchar) (str.to_re "zczi") (re.* re.allchar) (str.to_re "ovbwupvgzmisoyun") re.allchar (str.to_re "btpttkwcgptoqdsxycbcxyfnpmddarnafrj") (re.* re.allchar) (str.to_re "aalqmezjstcgpznyiruuvobhhhm") re.allchar (str.to_re "uoei") (re.* re.allchar) (str.to_re "edemzq") (re.* re.allchar) (str.to_re "wm") re.allchar (str.to_re "ytmzrsgpryfilnkbpztr") re.allchar (str.to_re "rdvvhllt") (re.* re.allchar) (str.to_re "djggdwegxrngtqxhjoilkuteqgynohs") (re.* re.allchar) (str.to_re "srybjhxmgsiwzjfomfcbd") (re.* re.allchar) (str.to_re "fmmm") re.allchar (str.to_re "hdin") re.allchar (str.to_re "fzseczztsghqzfaumrnlplxuhnborkbs") (re.* re.allchar) (str.to_re "hlofyjdtsggvlqqwjuhldqptsgpvnwdfiw") (re.* re.allchar) (re.* re.allchar) (str.to_re "ptekkzkikdzqmfjzdshmcdpdwum") (re.* re.allchar) (str.to_re "nfvjyuj") (re.* re.allchar) (str.to_re "c") re.allchar (str.to_re "xfmwtlbghjmdqgmwecniyr") (re.* re.allchar) (str.to_re "tfqfadwwogvlapminmrhrlsumrixmwgmj") re.allchar (str.to_re "igfguefpkfejzycgpptxnsszibyqrtbu") re.allchar (str.to_re "l") re.allchar (str.to_re "icsbtrzqkwbnk") (re.* re.allchar) (str.to_re "h") re.allchar (str.to_re "plvweuto") (re.* re.allchar) (str.to_re "dxsppnpp") re.allchar re.allchar (str.to_re "aqotyssytanzqamjdayvxdxbhhidntx") (re.* re.allchar) (str.to_re "jkiqsrvaq") (re.* re.allchar) (str.to_re "bvpcdql") (re.* re.allchar) (str.to_re "shyc") re.allchar (str.to_re "diahmvdhubqxxrhrnknvzs") (re.* re.allchar) (str.to_re "vatkkhnifgdfcfowkmxnlamfhgyo") (re.* re.allchar) (str.to_re "luyuxfjbl") (re.* re.allchar) (str.to_re "io") (re.* re.allchar) (str.to_re "sxpoyolkxfcz") (re.* re.allchar) (str.to_re "b") (re.* re.allchar) (str.to_re "kshtlm") (re.* re.allchar) (str.to_re "xrc") re.allchar re.allchar (str.to_re "gqd") (re.* re.allchar) (str.to_re "qicxgch") re.allchar (str.to_re "zbocgtimcpkq") re.allchar (str.to_re "qejufjckavflbxtk") (re.* re.allchar) (str.to_re "pjdoe") re.allchar (str.to_re "jujmuu") re.allchar (str.to_re "lbziptnjgztxkgoydhdeynngmncgulqvnkjgjkmesfaeeunatawzzrmxommrommidvspqdj") (re.* re.allchar) (str.to_re "uaqggzgx") (re.* re.allchar) (str.to_re "l") (re.* re.allchar) (str.to_re "xpfsjmvdlbkinuheem") re.allchar (str.to_re "lyohltyjrwmcttlwwhfsbxgrpsqdsdm") re.allchar (str.to_re "qwvknblw") (re.* re.allchar) (str.to_re "owthibnztgxlokpmggtcrkkfynktcqdofiidggbquviuhjtikxzckvrcfrun") (re.* re.allchar) (str.to_re "ucfocbgwg") re.allchar (str.to_re "bzma") (re.* re.allchar) (str.to_re "ng") (re.* re.allchar) (str.to_re "ctuxpwczgnkbwqdmuk") (re.* re.allchar) (str.to_re "ocvuyem") (re.* re.allchar) (str.to_re "damxbx") re.allchar (str.to_re "nkznkvorcgzwjxxhudviw") re.allchar (str.to_re "iwdq") (re.* re.allchar) (str.to_re "vi") re.allchar (str.to_re "hv") (re.* re.allchar) (str.to_re "zgqutfylb") re.allchar (str.to_re "gejvg") (re.* re.allchar) (str.to_re "raqlngoiy") re.allchar (str.to_re "ebzhywywqxaoe") re.allchar (str.to_re "mjomqmh") (re.* re.allchar) (str.to_re "iwxissmrmy") (re.* re.allchar) (str.to_re "nckeahsuiirmvldsilnyhrqrnhmhr") (re.* re.allchar) (str.to_re "mmbjl") (re.* re.allchar) (str.to_re "gocstypysgrl") re.allchar (str.to_re "ijmkyd") (re.* re.allchar) (str.to_re "imz") re.allchar (str.to_re "twgjhqwvuivhhxuiauybfkkkxhcuopt") re.allchar (str.to_re "guyvjlidfylpp") re.allchar (str.to_re "mgfugqwjcmrewhca") (re.* re.allchar) (str.to_re "ckajzymazomenwryp") re.allchar re.allchar (str.to_re "xgadgjgtlrtodh") (re.* re.allchar) (str.to_re "tgiqvjnjenogkcbxtkqorhfhxthbuh") (re.* re.allchar) (str.to_re "wnrtikhmkbegn") (re.* re.allchar) (str.to_re "wfnjotxjgf") (re.* re.allchar) (str.to_re "u") re.allchar (str.to_re "uijt") )   (re.++ (str.to_re "tagoivjpbiyrrsyjztyexyqcgxahhdodcqwwcetnnuvgauphstinfrfhlhqwqeqz") re.allchar (str.to_re "vto") re.allchar (str.to_re "tlughkczqxit") (re.* re.allchar) (str.to_re "jmyvygsoxxkgkgyasrpyqx") re.allchar (str.to_re "gtddqlrfstmykzmdfhwdjxuvurfssrq") (re.* re.allchar) (str.to_re "dyorbxfroeory") (re.* re.allchar) (str.to_re "zvxzppidhhuhfrisxlgptveqikbovwpzrsyjyhpafkikzkyckkroduvgqnhcuf") re.allchar (str.to_re "emg") re.allchar (str.to_re "pjimrztxuhco") (re.* re.allchar) (str.to_re "uawscinylm") (re.* re.allchar) (str.to_re "ftcw") (re.* re.allchar) (str.to_re "ucgyashjljqjbn") (re.* re.allchar) (str.to_re "ydbglvm") re.allchar (str.to_re "qsswloaezvfdtybpucc") (re.* re.allchar) (str.to_re "mfxdaypsfidmlzjdhlu") re.allchar (str.to_re "gjmfqbw") (re.* re.allchar) (str.to_re "ibsm") (re.* re.allchar) (str.to_re "knlyblwjt") re.allchar re.allchar (str.to_re "efkvcu") re.allchar (str.to_re "znlthvcyakrcds") (re.* re.allchar) (str.to_re "pwhqxrhnvcfqypcgvbagyljzcxgql") re.allchar (str.to_re "jdlihvkuqt") re.allchar (str.to_re "xebvvhocpuh") re.allchar (str.to_re "qlbvqdtzektdygzypdfe") re.allchar (str.to_re "jsbnkuwwskgwu") re.allchar (str.to_re "qxdbfk") re.allchar (str.to_re "bxp") re.allchar (str.to_re "szm") (re.* re.allchar) (re.* re.allchar) (str.to_re "yrjhzrkhgel") re.allchar (str.to_re "llkuuxmfbgoxkcpfskdbznfeebpoyvgz") (re.* re.allchar) (str.to_re "qaymtsyhd") re.allchar (str.to_re "pngp") (re.* re.allchar) (str.to_re "ivebbc") (re.* re.allchar) (str.to_re "mrbfbrtbvchrsgaxbzpelukm") (re.* re.allchar) (str.to_re "fxdtv") re.allchar (str.to_re "sjmdmuxwib") (re.* re.allchar) (str.to_re "nsto") (re.* re.allchar) (str.to_re "yybe") re.allchar (str.to_re "oydvsvllsopcnwucwj") (re.* re.allchar) (str.to_re "vkom") (re.* re.allchar) (str.to_re "blaqva") re.allchar (str.to_re "jjaujvwgbutjmvrcykzjjxamijenbfseizq") (re.* re.allchar) (str.to_re "yrkfdw") re.allchar (str.to_re "cpo") re.allchar (str.to_re "kysmpvzxvhngwsqaj") (re.* re.allchar) (str.to_re "uynlyvkrdvngrxnkfgtbbnpdnnjwcr") (re.* re.allchar) (str.to_re "ovaijfjmfmewquylrpywcxcohrtkll") re.allchar (str.to_re "hily") re.allchar (str.to_re "pghvritqwoemwseltjoyymibbh") (re.* re.allchar) (str.to_re "j") (re.* re.allchar) (str.to_re "bhmlprczo") (re.* re.allchar) (str.to_re "dxowzapugphvgaqlod") re.allchar (str.to_re "xa") re.allchar (str.to_re "xkmvibsl") (re.* re.allchar) (str.to_re "wavwzfosxe") re.allchar (str.to_re "mzr") (re.* re.allchar) (re.* re.allchar) (str.to_re "h") (re.* re.allchar) (str.to_re "hlaietr") (re.* re.allchar) (str.to_re "sjrv") re.allchar (str.to_re "eoz") (re.* re.allchar) (str.to_re "vicbsefzeenjyvactgpsvcvteolzmlcemwnmvhfnltdcmmyt") (re.* re.allchar) (str.to_re "gbbakm") (re.* re.allchar) (str.to_re "qfxjl") re.allchar (str.to_re "brfcwwezrsbwdhydductzyz") (re.* re.allchar) (str.to_re "a") (re.* re.allchar) (str.to_re "s") (re.* re.allchar) (str.to_re "uxchlrkqpnuuc") re.allchar (str.to_re "pcrcbwmwp") re.allchar (str.to_re "ewxi") re.allchar (str.to_re "junuxz") re.allchar re.allchar (str.to_re "kebwmtjizbkdwfonwtlbgtswxp") re.allchar (str.to_re "sskkiygjfocgb") (re.* re.allchar) (str.to_re "ysxgk") re.allchar (str.to_re "egzgu") (re.* re.allchar) (str.to_re "hlqpvfbsopfe") (re.* re.allchar) (str.to_re "ugpdnkivinswymdqq") re.allchar (str.to_re "xepouotqtkz") (re.* re.allchar) (str.to_re "hfiqamhhblwk") (re.* re.allchar) (str.to_re "ttqvvaszfke") (re.* re.allchar) (str.to_re "qkjptppnkqri") re.allchar (str.to_re "xrnuk") (re.* re.allchar) (str.to_re "kieypwcju") (re.* re.allchar) (str.to_re "ztotadlpppofpteoepxnxhxafwwsdnkbspk") (re.* re.allchar) (str.to_re "qn") re.allchar (str.to_re "q") re.allchar (str.to_re "flabqqggy") (re.* re.allchar) (str.to_re "w") (re.* re.allchar) (str.to_re "iup") re.allchar (str.to_re "iopa") (re.* re.allchar) (str.to_re "hqwiusblib") re.allchar (str.to_re "yiirjqyiqzoqanqiaaejjhfkkso") (re.* re.allchar) (str.to_re "vpgex") re.allchar (str.to_re "kldftmeofkbggpcsgy") re.allchar (str.to_re "ofmmicojkljqckzwimxgztlnu") re.allchar (str.to_re "mlzwihxo") re.allchar (str.to_re "lrdmwiahvyqspljpicadyv") (re.* re.allchar) (str.to_re "d") re.allchar (str.to_re "obndkhjjjydwnuauyatkheunq") (re.* re.allchar) (re.* re.allchar) (str.to_re "gxa") (re.* re.allchar) (str.to_re "bdmwy") re.allchar (str.to_re "omiuo") (re.* re.allchar) (str.to_re "xjkhwe") re.allchar (str.to_re "gmvxsjexocrbmlfjiaungsbyypbp") (re.* re.allchar) (str.to_re "t") (re.* re.allchar) (str.to_re "ojp") (re.* re.allchar) (str.to_re "ekespej") re.allchar (str.to_re "uqewzbrtsocdzrhuizommdwbp") re.allchar (str.to_re "hzoswhrqsoqwokdzvnjhcfsdkjvovkswojagyndvkjvdxufviw") re.allchar (str.to_re "q") re.allchar (str.to_re "qcnckflkyvnhhkbxmppfompcgdsk") (re.* re.allchar) (str.to_re "u") (re.* re.allchar) (str.to_re "qgpkeumwbzk") re.allchar (str.to_re "zjqx") re.allchar (str.to_re "dnbnjjehehyirgnlnishxuexplesslboedhzlnnr") re.allchar (str.to_re "ggnswigj") re.allchar (str.to_re "qpdpyt") re.allchar (str.to_re "axray") (re.* re.allchar) (str.to_re "mwupfqcryzcihwvcxitqxaycb") (re.* re.allchar) (str.to_re "qq") (re.* re.allchar) (str.to_re "i") re.allchar (str.to_re "ksjjuyrrbcmmlox") re.allchar (str.to_re "rymke") re.allchar (str.to_re "wjsalozowf") (re.* re.allchar) (str.to_re "bbctgpa") (re.* re.allchar) (str.to_re "ugkzh") (re.* re.allchar) (str.to_re "znxu") (re.* re.allchar) (str.to_re "hquthzsbmhb") (re.* re.allchar) (str.to_re "ypnynhblyphlbcvmgjkfkfnnk") (re.* re.allchar) (str.to_re "jthvghkdrofz") re.allchar (str.to_re "bcypyowdvlbojksit") re.allchar (str.to_re "lgsrmkzrhv") (re.* re.allchar) (str.to_re "ydpmhppv") (re.* re.allchar) (re.* re.allchar) (str.to_re "ftolalaxhprvkcvfymypbpwbwmrtwh") )  )))
(check-sat)
(exit)
